presolving:
(round 1, fast)       11250 del vars, 33650 del conss, 0 add conss, 57254 chg bounds, 0 chg sides, 224 chg coeffs, 0 upgd conss, 0 impls, 55 clqs
(round 2, fast)       22400 del vars, 36324 del conss, 0 add conss, 57254 chg bounds, 0 chg sides, 224 chg coeffs, 0 upgd conss, 0 impls, 55 clqs
   (1.0s) running MILP presolver
   (1.5s) MILP presolver (5 rounds): 0 aggregations, 44755 fixings, 174 bound changes
(round 3, medium)     67200 del vars, 56972 del conss, 11475 add conss, 57428 chg bounds, 0 chg sides, 224 chg coeffs, 0 upgd conss, 0 impls, 50 clqs
(round 4, exhaustive) 67200 del vars, 56972 del conss, 11475 add conss, 57428 chg bounds, 0 chg sides, 224 chg coeffs, 11475 upgd conss, 0 impls, 11250 clqs
(round 5, fast)       67424 del vars, 56973 del conss, 11475 add conss, 57428 chg bounds, 0 chg sides, 10528 chg coeffs, 11475 upgd conss, 0 impls, 11250 clqs
(round 6, medium)     67424 del vars, 68397 del conss, 22675 add conss, 57428 chg bounds, 0 chg sides, 10528 chg coeffs, 11475 upgd conss, 0 impls, 11250 clqs
   (2.1s) probing: 51/11424 (0.4%) - 0 fixings, 0 aggregations, 0 implications, 0 bound changes
   (2.1s) probing aborted: 50/50 successive totally useless probings
   (2.1s) symmetry computation started: requiring (bin +, int -, cont +), (fixed: bin -, int +, cont -)
   (2.2s) no symmetry present
presolving (7 rounds: 7 fast, 4 medium, 2 exhaustive):
 67424 deleted vars, 68397 deleted constraints, 22675 added constraints, 57428 tightened bounds, 0 added holes, 0 changed sides, 10528 changed coefficients
 0 implications, 11250 cliques
presolved problem has 11424 variables (11424 bin, 0 int, 0 impl, 0 cont) and 11250 constraints
  11250 constraints of type <setppc>
Presolving Time: 1.83

 time | node  | left  |LP iter|LP it/n|mem/heur|mdpt |vars |cons |rows |cuts |sepa|confs|strbr|  dualbound   | primalbound  |  gap   | compl. 
p 2.3s|     1 |     0 |     0 |     - |  clique|   0 |  11k|  11k|  11k|   0 |  0 |   0 |   0 | 4.899691e+02 | 3.653790e+05 |  Large | unknown
p 2.5s|     1 |     0 |     0 |     - | vbounds|   0 |  11k|  11k|  11k|   0 |  0 |   0 |   0 | 4.899691e+02 | 1.199980e+05 |  Large | unknown
p 2.7s|     1 |     0 |     0 |     - | vbounds|   0 |  11k|  11k|  11k|   0 |  0 |   0 |   0 | 4.899691e+02 | 1.071200e+05 |  Large | unknown
  4.9s|     1 |     0 |  5931 |     - |   319M |   0 |  11k|  11k|  11k|   0 |  0 |   1 |   0 | 8.403937e+04 | 1.071200e+05 |  27.46%| unknown
  6.3s|     1 |     0 |  6384 |     - |   321M |   0 |  11k|  11k|  11k|   1 |  1 |   1 |   0 | 8.408065e+04 | 1.071200e+05 |  27.40%| unknown
  6.8s|     1 |     0 |  6742 |     - |   322M |   0 |  11k|  11k|  11k|   2 |  2 |   1 |   0 | 8.411019e+04 | 1.071200e+05 |  27.36%| unknown
  7.6s|     1 |     0 |  7065 |     - |   324M |   0 |  11k|  11k|  11k|   3 |  3 |   1 |   0 | 8.413533e+04 | 1.071200e+05 |  27.32%| unknown
  8.2s|     1 |     0 |  7229 |     - |   325M |   0 |  11k|  11k|  11k|   4 |  4 |   1 |   0 | 8.414435e+04 | 1.071200e+05 |  27.31%| unknown
d20.5s|     1 |     0 | 27067 |     - |farkasdi|   0 |  11k|  11k|  11k|   0 |  6 |   1 |   0 | 8.414435e+04 | 9.061897e+04 |   7.69%| unknown
L31.8s|     1 |     0 | 48658 |     - |    rens|   0 |  11k|  11k|  11k|   4 |  6 |   1 |   0 | 8.414435e+04 | 8.781297e+04 |   4.36%| unknown
 32.0s|     1 |     0 | 48658 |     - |   330M |   0 |  11k|  11k|  11k|   4 |  6 |   1 |   0 | 8.414435e+04 | 8.781297e+04 |   4.36%| unknown
 32.1s|     1 |     0 | 48658 |     - |   330M |   0 |  11k|  11k|7382 |   4 |  6 |   1 |   0 | 8.414435e+04 | 8.781297e+04 |   4.36%| unknown
 32.4s|     1 |     0 | 48783 |     - |   332M |   0 |  11k|7379 |7383 |   5 |  7 |   1 |   0 | 8.416405e+04 | 8.781297e+04 |   4.34%| unknown
(run 1, node 1) restarting after 4945 global fixings of integer variables

(restart) converted 5 cuts from the global cut pool into linear constraints

presolving:
(round 1, fast)       4945 del vars, 0 del conss, 0 add conss, 0 chg bounds, 0 chg sides, 88 chg coeffs, 0 upgd conss, 0 impls, 6382 clqs
   (32.6s) running MILP presolver
   (32.6s) MILP presolver found nothing
presolving (2 rounds: 2 fast, 1 medium, 1 exhaustive):
 4945 deleted vars, 0 deleted constraints, 0 added constraints, 0 tightened bounds, 0 added holes, 0 changed sides, 88 changed coefficients
 0 implications, 6382 cliques
presolved problem has 6479 variables (6479 bin, 0 int, 0 impl, 0 cont) and 6388 constraints
      5 constraints of type <knapsack>
   6382 constraints of type <setppc>
      1 constraints of type <logicor>
Presolving Time: 2.06
transformed 4/6 original solutions to the transformed problem space

 time | node  | left  |LP iter|LP it/n|mem/heur|mdpt |vars |cons |rows |cuts |sepa|confs|strbr|  dualbound   | primalbound  |  gap   | compl. 
 33.6s|     1 |     0 | 52642 |     - |   338M |   0 |6479 |6388 |6387 |   0 |  0 |   1 |   0 | 8.416405e+04 | 8.781297e+04 |   4.34%| unknown
 33.6s|     1 |     0 | 52642 |     - |   339M |   0 |6479 |6388 |6198 |   0 |  0 |   1 |   0 | 8.416405e+04 | 8.781297e+04 |   4.34%| unknown
 34.1s|     1 |     0 | 52724 |     - |   340M |   0 |6479 |6199 |6199 |   1 |  1 |   1 |   0 | 8.417145e+04 | 8.781297e+04 |   4.33%| unknown
 34.2s|     1 |     0 | 52724 |     - |   340M |   0 |6479 |6199 |6195 |   1 |  1 |   1 |   0 | 8.417145e+04 | 8.781297e+04 |   4.33%| unknown
 34.8s|     1 |     0 | 52886 |     - |   340M |   0 |6479 |6195 |6196 |   2 |  2 |   1 |   0 | 8.418198e+04 | 8.781297e+04 |   4.31%| unknown
 34.8s|     1 |     0 | 52886 |     - |   341M |   0 |6479 |6195 |6192 |   2 |  2 |   1 |   0 | 8.418198e+04 | 8.781297e+04 |   4.31%| unknown
 51.2s|     1 |     2 | 57738 |     - |   341M |   0 |6479 |6152 |6192 |   2 |  4 |  11 |  38 | 8.429753e+04 | 8.781297e+04 |   4.17%| unknown
(run 2, node 1) restarting after 250 global fixings of integer variables

(restart) converted 2 cuts from the global cut pool into linear constraints

presolving:
(round 1, fast)       250 del vars, 0 del conss, 0 add conss, 0 chg bounds, 0 chg sides, 4 chg coeffs, 0 upgd conss, 0 impls, 6136 clqs
presolving (2 rounds: 2 fast, 1 medium, 1 exhaustive):
 250 deleted vars, 0 deleted constraints, 0 added constraints, 0 tightened bounds, 0 added holes, 0 changed sides, 4 changed coefficients
 0 implications, 6136 cliques
presolved problem has 6229 variables (6229 bin, 0 int, 0 impl, 0 cont) and 6154 constraints
      7 constraints of type <knapsack>
   6136 constraints of type <setppc>
     11 constraints of type <logicor>
Presolving Time: 2.26
transformed 5/7 original solutions to the transformed problem space

 time | node  | left  |LP iter|LP it/n|mem/heur|mdpt |vars |cons |rows |cuts |sepa|confs|strbr|  dualbound   | primalbound  |  gap   | compl. 
 52.5s|     1 |     0 | 62011 |     - |   344M |   0 |6229 |6154 |6143 |   0 |  0 |  11 |  38 | 8.429753e+04 | 8.781297e+04 |   4.17%| unknown
 52.9s|     1 |     0 | 62149 |     - |   345M |   0 |6229 |6154 |6144 |   1 |  1 |  11 |  38 | 8.429753e+04 | 8.781297e+04 |   4.17%| unknown
 52.9s|     1 |     0 | 62149 |     - |   345M |   0 |6229 |6154 |6141 |   1 |  1 |  11 |  38 | 8.429753e+04 | 8.781297e+04 |   4.17%| unknown
 53.3s|     1 |     0 | 62321 |     - |   346M |   0 |6229 |6151 |6142 |   2 |  2 |  11 |  38 | 8.429753e+04 | 8.781297e+04 |   4.17%| unknown
 53.3s|     1 |     0 | 62321 |     - |   346M |   0 |6229 |6151 |6141 |   2 |  2 |  11 |  38 | 8.429753e+04 | 8.781297e+04 |   4.17%| unknown
 53.6s|     1 |     0 | 62366 |     - |   346M |   0 |6229 |6150 |6142 |   3 |  3 |  11 |  38 | 8.429753e+04 | 8.781297e+04 |   4.17%| unknown
 53.8s|     1 |     0 | 62480 |     - |   346M |   0 |6229 |6150 |6143 |   4 |  4 |  11 |  38 | 8.429753e+04 | 8.781297e+04 |   4.17%| unknown
 53.9s|     1 |     0 | 62480 |     - |   346M |   0 |6229 |6150 |6142 |   4 |  4 |  11 |  38 | 8.429753e+04 | 8.781297e+04 |   4.17%| unknown
 54.1s|     1 |     0 | 62569 |     - |   346M |   0 |6229 |6149 |6143 |   5 |  5 |  11 |  38 | 8.429753e+04 | 8.781297e+04 |   4.17%| unknown
 54.4s|     1 |     0 | 62662 |     - |   346M |   0 |6229 |6149 |6144 |   6 |  6 |  11 |  38 | 8.429753e+04 | 8.781297e+04 |   4.17%| unknown
 54.7s|     1 |     0 | 62850 |     - |   347M |   0 |6229 |6149 |6145 |   7 |  7 |  11 |  38 | 8.429753e+04 | 8.781297e+04 |   4.17%| unknown
 54.7s|     1 |     0 | 62850 |     - |   347M |   0 |6229 |6149 |6144 |   7 |  7 |  11 |  38 | 8.429753e+04 | 8.781297e+04 |   4.17%| unknown
 63.3s|     1 |     2 | 62851 |     - |   347M |   0 |6229 |6148 |6144 |   7 |  9 |  11 |  62 | 8.437972e+04 | 8.781297e+04 |   4.07%| unknown
*94.7s|     7 |     6 | 67679 |6388.8 |strongbr|   6 |6229 |6148 |6143 |   7 |  2 |  11 | 183 | 8.456117e+04 | 8.691997e+04 |   2.79%| unknown
*97.0s|     8 |     5 | 69286 |5857.4 |strongbr|   6 |6229 |6190 |6143 |   7 |  3 |  53 | 210 | 8.456117e+04 | 8.688397e+04 |   2.75%|   5.89%
 time | node  | left  |LP iter|LP it/n|mem/heur|mdpt |vars |cons |rows |cuts |sepa|confs|strbr|  dualbound   | primalbound  |  gap   | compl. 
* 111s|    23 |     6 | 74319 |2406.2 |    LP  |  11 |6229 |6219 |6143 |   7 |  2 |  82 | 271 | 8.456117e+04 | 8.684797e+04 |   2.70%|   8.57%
* 112s|    32 |     5 | 78355 |1872.3 |    LP  |  11 |6229 |6219 |6143 |   7 |  2 |  82 | 271 | 8.494147e+04 | 8.619297e+04 |   1.47%|  13.36%
  117s|   100 |     1 | 91871 | 745.6 |   353M |  18 |6229 |6067 |6143 |   7 |  0 |  82 | 271 | 8.594013e+04 | 8.619297e+04 |   0.29%|  91.21%

SCIP Status        : problem is solved [optimal solution found]
Solving Time (sec) : 116.68
Solving Nodes      : 101 (total of 103 nodes in 3 runs)
Primal Bound       : +8.61929691078663e+04 (12 solutions)
Dual Bound         : +8.61929691078663e+04
Gap                : 0.00 %
Solve Status: optimal
Solve Time: 116.72 seconds
Objective Value: 86192.97
